language ESSENCE' 1.0
letting lastdx=99
letting cage be [
[18,1,1,1,2,0,0, 0,0, 0,0],
[23,13,2,13,3,13,4,13,5,13,6],
[28,7,6,6,6,6,7,0,0, 0,0],
[29,15,13,15,12,15,11,0,0, 0,0],
[4,16,6,0,0, 0,0, 0,0, 0,0],
[7,2,5,0,0, 0,0, 0,0, 0,0],
[49,12,11,12,10,13,10,13,11,13,12],
[28,13,8,13,9,0,0, 0,0, 0,0],
[15,2,3,0,0, 0,0, 0,0, 0,0],
[6,16,10,16,9,0,0, 0,0, 0,0],
[16,4,13,5,13,0,0, 0,0, 0,0],
[19,9,13,10,13,10,14,9,14,0,0],
[24,2,7,2,8,3,8,0,0, 0,0],
[6,6,16,0,0, 0,0, 0,0, 0,0],
[5,14,15,0,0, 0,0, 0,0, 0,0],
[13,3,16,0,0, 0,0, 0,0, 0,0],
[15,12,1,0,0, 0,0, 0,0, 0,0],
[8,11,15,0,0, 0,0, 0,0, 0,0],
[5,9,16,0,0, 0,0, 0,0, 0,0],
[15,11,5,0,0, 0,0, 0,0, 0,0],
[46,4,10,5,10,5,11,5,12,0,0],
[16,14,3,14,4,0,0, 0,0, 0,0],
[30,16,7,16,8,15,8,14,8,0,0],
[26,8,2,7,2,6,2,0,0, 0,0],
[10,4,16,5,16,5,15,0,0, 0,0],
[14,7,3,0,0, 0,0, 0,0, 0,0],
[8,12,7,0,0, 0,0, 0,0, 0,0],
[46,9,10,9,9,10,9,11,9,12,9],
[29,10,6,10,5,10,4,10,3,0,0],
[5,4,7,4,6,0,0, 0,0, 0,0],
[49,7,15,7,16,8,16,8,15,0,0],
[8,5,4,0,0, 0,0, 0,0, 0,0],
[28,8,14,8,13,7,13,6,13,6,12],
[32,11,2,11,1,10,1,0,0, 0,0],
[11,9,7,0,0, 0,0, 0,0, 0,0],
[32,2,10,2,11,3,11,4,11,0,0],
[4,6,8,0,0, 0,0, 0,0, 0,0],
[17,1,3,1,4,2,4,0,0, 0,0],
[36,14,6,15,6,15,5,14,5,0,0],
[55,12,12,11,12,10,12,9,12,9,11],
[30,4,8,5,8,5,7,5,6,0,0],
[10,3,15,0,0, 0,0, 0,0, 0,0],
[5,7,12,0,0, 0,0, 0,0, 0,0],
[11,9,6,9,5,0,0, 0,0, 0,0],
[28,1,11,1,10,1,9,2,9,0,0],
[40,8,5,8,4,9,4,9,3,8,3],
[40,4,14,4,15,5,14,0,0, 0,0],
[37,13,1,14,1,14,2,15,2,0,0],
[32,6,5,7,5,7,4,6,4,0,0],
[17,8,11,8,12,0,0, 0,0, 0,0],
[42,5,3,6,3,5,2,4,2,4,3],
[31,8,1,9,1,9,2,10,2,0,0],
[11,8,8,0,0, 0,0, 0,0, 0,0],
[13,7,8,0,0, 0,0, 0,0, 0,0],
[39,2,13,3,13,3,14,2,14,2,15],
[9,2,1,0,0, 0,0, 0,0, 0,0],
[11,12,3,12,2,0,0, 0,0, 0,0],
[16,3,7,3,6,3,5,0,0, 0,0],
[22,11,11,11,10,10,10,10,11,0,0],
[37,6,11,7,11,7,10,8,10,0,0],
[25,10,8,9,8,11,8,12,8,0,0],
[28,6,15,6,14,7,14,0,0, 0,0],
[15,15,7,0,0, 0,0, 0,0, 0,0],
[44,11,6,12,6,12,5,12,4,0,0],
[16,14,7,13,7,0,0, 0,0, 0,0],
[69,2,6,1,6,1,5,1,7,1,8],
[13,8,9,7,9,0,0, 0,0, 0,0],
[15,1,13,1,12,0,0, 0,0, 0,0],
[14,6,1,7,1,0,0, 0,0, 0,0],
[11,2,16,1,16,0,0, 0,0, 0,0],
[23,4,12,3,12,2,12,0,0, 0,0],
[13,12,13,0,0, 0,0, 0,0, 0,0],
[16,15,4,0,0, 0,0, 0,0, 0,0],
[16,10,7,11,7,0,0, 0,0, 0,0],
[31,9,15,10,15,0,0, 0,0, 0,0],
[17,3,9,3,10,0,0, 0,0, 0,0],
[9,12,14,12,15,0,0, 0,0, 0,0],
[5,3,3,0,0, 0,0, 0,0, 0,0],
[16,1,14,1,15,0,0, 0,0, 0,0],
[14,2,2,0,0, 0,0, 0,0, 0,0],
[43,3,4,4,4,4,5,5,5,0,0],
[24,7,7,8,7,8,6,0,0, 0,0],
[12,10,16,0,0, 0,0, 0,0, 0,0],
[18,11,3,11,4,0,0, 0,0, 0,0],
[14,11,13,11,14,0,0, 0,0, 0,0],
[25,11,16,12,16,0,0, 0,0, 0,0],
[6,13,13,0,0, 0,0, 0,0, 0,0],
[21,13,14,14,14,0,0, 0,0, 0,0],
[28,13,15,13,16,14,16,0,0, 0,0],
[10,14,9,0,0, 0,0, 0,0, 0,0],
[11,14,10,0,0, 0,0, 0,0, 0,0],
[13,14,11,0,0, 0,0, 0,0, 0,0],
[19,14,12,14,13,0,0, 0,0, 0,0],
[26,15,1,16,1,16,2,0,0, 0,0],
[1,15,3,0,0, 0,0, 0,0, 0,0],
[8,15,9,15,10,0,0, 0,0, 0,0],
[17,15,14,15,15,0,0, 0,0, 0,0],
[32,15,16,16,16,16,15,16,14,16,13],
[36,16,3,16,4,16,5,0,0, 0,0],
[19,16,11,16,12,0,0, 0,0, 0,0]
]
